mode: 3, sl: 0, sr: 0, revisit: 1, loop: 1
Jetsuite speed factor: 7.19
Solving mode: 3-indexed base
Solving mode: 3-indexed base
Instance name: /home/orlab/rv-fstsp2/rv-fstsp-jetsuite/Niels_instances/output_with_jetsuite//uniform-alpha_3-51-n10-maxradius-40.txt
---------------------------------------------------------------
Current config:
- Number of threads = -1
- Drone endurance = 9999
- SL = 0
- SR = 0
- Allow loop = 1
- Allow revisit = 1
- Allow multi-visit drone = 0
- Use TSP optimal solution as warmstart: = 0
- Use cutting plane method: = 0
- Use CPLEX conflict refiner: = 0
- Debug info: = 0
- Jetsuit enabled: = 0
---------------------------------------------------------------
Version identifier: 22.1.1.0 | 2022-11-28 | 9160aff4d
Tried aggregator 2 times.
MIP Presolve eliminated 1114 rows and 2171 columns.
MIP Presolve modified 1415 coefficients.
Aggregator did 9 substitutions.
Reduced MIP has 1249 rows, 3780 columns, and 30893 nonzeros.
Reduced MIP has 3760 binaries, 0 generals, 0 SOSs, and 0 indicators.
Presolve time = 0.02 sec. (44.34 ticks)
Found incumbent of value 91187.053071 after 0.03 sec. (67.93 ticks)
Probing fixed 54 vars, tightened 18 bounds.
Probing changed sense of 5 constraints.
Probing time = 0.08 sec. (186.15 ticks)
Cover probing fixed 0 vars, tightened 22 bounds.
Tried aggregator 2 times.
Detecting symmetries...
MIP Presolve eliminated 53 rows and 121 columns.
MIP Presolve modified 2407 coefficients.
Aggregator did 12 substitutions.
Reduced MIP has 1181 rows, 3647 columns, and 30191 nonzeros.
Reduced MIP has 3634 binaries, 0 generals, 0 SOSs, and 0 indicators.
Presolve time = 0.02 sec. (49.24 ticks)
Probing time = 0.01 sec. (7.82 ticks)
Cover probing fixed 0 vars, tightened 3 bounds.
Clique table members: 14637.
MIP emphasis: balance optimality and feasibility.
MIP search method: dynamic search.
Parallel mode: deterministic, using up to 20 threads.
Root relaxation solution time = 0.09 sec. (188.40 ticks)

        Nodes                                         Cuts/
   Node  Left     Objective  IInf  Best Integer    Best Bound    ItCnt     Gap

*     0+    0                        91187.0531       32.2180            99.96%
      0     0       65.0997   127    91187.0531       65.0997       26   99.93%
*     0+    0                          209.4228       65.0997            68.91%
*     0+    0                          198.3656       65.0997            67.18%
      0     0       85.6625   132      198.3656      Cuts: 23     2988   56.82%
      0     0       85.8510   199      198.3656      Cuts: 28     4943   56.72%
      0     0       85.9524   179      198.3656      Cuts: 25     5236   56.67%
      0     0       86.1336   152      198.3656      Cuts: 31     5629   56.58%
      0     0       86.4221   149      198.3656      Cuts: 16     5965   56.43%
Detecting symmetries...
      0     0       86.7605   156      198.3656      Cuts: 23     6116   56.26%
      0     0       86.9589   175      198.3656      Cuts: 36     6333   56.16%
      0     0       87.0125   191      198.3656      Cuts: 25     6722   56.14%
      0     0       87.1134   169      198.3656      Cuts: 25     6897   56.08%
      0     0       87.1409   203      198.3656      Cuts: 29     7299   56.07%
      0     0       87.1928   180      198.3656      Cuts: 20     7433   56.04%
      0     0       87.1992   187      198.3656      Cuts: 17     7481   56.04%
      0     0       87.2197   188      198.3656      Cuts: 13     7591   56.03%
      0     0       87.2284   191      198.3656      Cuts: 18     7712   56.03%
Detecting symmetries...
      0     2       87.2284   148      198.3656       87.2284     7712   56.03%
Elapsed time = 1.64 sec. (2172.98 ticks, tree = 0.02 MB, solutions = 3)
     14    10        cutoff            198.3656       87.2284    14506   56.03%
*    68+   26                          197.7120       87.2284            55.88%
*    92    29      integral     0      192.3568       87.2284    24807   54.65%
*   198+   39                          189.9188       87.2284            54.07%
   1040    11        cutoff            189.9188       87.2284    74759   54.07%
   1056     8      181.5806    51      189.9188       87.2284    79438   54.07%
   1076    10       87.2378   205      189.9188       87.2284    76845   54.07%
   1164    19    infeasible            189.9188      104.9934    99826   44.72%
   1326    12        cutoff            189.9188      118.3290   119356   37.69%
   1385    12        cutoff            189.9188      118.3290   130090   37.69%
   1545    14      186.0283   123      189.9188      118.3290   161600   37.69%
   1883    22      152.0786   130      189.9188      119.6889   220713   36.98%
Elapsed time = 4.38 sec. (5247.15 ticks, tree = 0.04 MB, solutions = 8)
   2210    19      171.6846    91      189.9188      170.0264   263551   10.47%

Implied bound cuts applied:  81
Flow cuts applied:  1
Mixed integer rounding cuts applied:  46
Zero-half cuts applied:  1
Gomory fractional cuts applied:  1

Root node processing (before b&c):
  Real time             =    1.56 sec. (2120.57 ticks)
Parallel b&c, 20 threads:
  Real time             =    4.24 sec. (4785.74 ticks)
  Sync time (average)   =    3.33 sec.
  Wait time (average)   =    0.00 sec.
                          ------------
Total (root+branch&cut) =    5.80 sec. (6906.31 ticks)
Solve time: 5.805
Objective Value: 189.919

Truck Schedule: 
Stage 1: Truck arrived node 0 at 0
	Truck departed from node 0 to node 2 at 0
Stage 2: Truck arrived node 2 at 42.3764
	Truck departed from node 2 to node 2 at 51.5179
Stage 3: Truck arrived node 2 at 51.5179
	Truck departed from node 2 to node 2 at 88.4803
Stage 4: Truck arrived node 2 at 88.4803
	Truck departed from node 2 to node 2 at 116.04
Stage 5: Truck arrived node 2 at 116.04
	Truck departed from node 2 to node 10 at 136.718
Stage 6: Truck arrived node 10 at 179.094

Truck arc:
Stage 1: 0 -> 2
Stage 2: 2 -> 2
Stage 3: 2 -> 2
Stage 4: 2 -> 2
Stage 5: 2 -> 10

Drone Schedule: 
Stage 1 to 2: Drone departed from node 0 visited customer 4 and arrived to node 2
	 Departed at: 0
	 Visited at: 28.3231
	 Arrived at: 51.5179
Added drone operation: position 0 (node 0) -> customer 4 -> position 1 (node 2)
Stage 2 to 3: Drone departed from node 2 visited customer 5 and arrived to node 2
	 Departed at: 51.5179
	 Visited at: 69.9991
	 Arrived at: 88.4803
Added drone operation: position 1 (node 2) -> customer 5 -> position 2 (node 2)
Stage 3 to 4: Drone departed from node 2 visited customer 6 and arrived to node 2
	 Departed at: 88.4803
	 Visited at: 102.26
	 Arrived at: 116.04
Added drone operation: position 2 (node 2) -> customer 6 -> position 3 (node 2)
Stage 4 to 5: Drone departed from node 2 visited customer 8 and arrived to node 2
	 Departed at: 116.04
	 Visited at: 126.379
	 Arrived at: 136.718
Added drone operation: position 3 (node 2) -> customer 8 -> position 4 (node 2)
Stage 5 to 6: Drone departed from node 2 visited customer 1 and arrived to node 10
	 Departed at: 136.718
	 Visited at: 157.886
	 Arrived at: 189.919
Added drone operation: position 4 (node 2) -> customer 1 -> position 5 (node 10)

Jetsuite Schedule: 
Stage 2: Jetsuite launched from node 2 served customer 3 and recovered at node 2
Stage 3: Jetsuite launched from node 2 served customer 7 and recovered at node 2
Stage 4: Jetsuite launched from node 2 served customer 9 and recovered at node 2
x[0][2][1] = 1
x[2][2][2] = 1
x[2][2][3] = 1
x[2][2][4] = 1
x[2][10][5] = 1

Drone Variables (V[i][h][k]):
Y[0][4][1] = 1
Y[2][1][5] = 1
Y[2][5][2] = 1
Y[2][6][3] = 1
Y[2][8][4] = 1

Jetsuite Variables (U[i][h][k]):
U[2][3][2] = 1
U[2][7][3] = 1
U[2][9][4] = 1

Checking the feasibility of the solution...
Time schedule is not given, recalculating...
The objective matches the recalculated objective
The solution is feasible
